language ESSENCE' 1.0

letting fixed be 
[
    [0,7,0,9,0,3,0,8,2],
    [0,0,0,0,2,0,0,0,0],
    [2,0,0,4,0,7,0,0,1],
    [6,0,5,0,0,2,1,0,9],
    [0,2,0,0,0,4,0,6,0],
    [7,0,8,0,0,0,2,0,5],
    [9,0,0,2,0,5,0,0,6],
    [0,0,2,0,7,0,0,0,0],
    [0,1,0,3,0,9,0,2,0]
]